#! RHF Linear Exchange Algorithm test for water

ref_energy = -76.04125669409474 # TEST (Compare to CSAM Screening, without LinK)

molecule mol {
    0 1
    O
    H 1 0.96
    H 1 0.96 2 104.5
    symmetry c1
    no_reorient
    no_com
}

set {
    scf_type composite
    k_type linK
    basis aug-cc-pVDZ
    ints_tolerance 1.0e-12
    e_convergence 1.0e-10
    screening density
    incfock true
}

linK_energy = energy('scf')
psi4.compare_values(ref_energy, linK_energy, 9, "HF Energy (Using LinK algo)")
